% demand
num_movements = 39;
loading_factor = [1100, 1550, 1050, 850, 1600, 1600, 1550, 1950, 1300, 1400, 1100, 1750, 1750, 1050, 1450, 1900, 1050, 1350, 1950, 1050, 1350, 800, 1400, 1800, 1550, 900, 1500, 1500, 1150, 1150, 900, 1950, 1700, 1700, 1000, 1650, 1600, 850, 1100];
pickup_time = [0, 0, 0, 0, 1, 1, 1, 1, 3, 3, 3, 3, 3, 3, 4, 4, 5, 6, 6, 6, 6, 6, 6, 7, 7, 7, 8, 8, 8, 8, 8, 9, 9, 10, 10, 10, 10, 10, 11];
delivery_time = [3, 3, 4, 1, 4, 3, 3, 3, 6, 6, 6, 8, 4, 6, 6, 6, 8, 8, 7, 8, 7, 8, 7, 8, 8, 8, 10, 10, 10, 10, 9, 11, 11, 11, 11, 11, 12, 11, 12];

% transporter definition
total_capacity = 11000;
num_decks = 4;
capacity = [3000, 3000, 1000, 4000];

% ways out of decks
num_ways_out = 2;
paths_out = array3d(decks, ways_out, decks, [
% ways out of deck d1
2, 4, 0, 0, 3, 4, 0, 0, 

% ways out of deck d2
4, 0, 0, 0, 0, 0, 0, 0,	

% ways out of deck d3
4, 0, 0, 0, 0, 0, 0, 0,	

% ways out of deck d4
0, 0, 0, 0,	0, 0, 0, 0,	

]);

